solving instance mcf nodes c52 3 6 pardivexp
presolving:
(round 1, fast)       517 del vars, 517 del conss, 0 add conss, 30 chg bounds, 0 chg sides, 0 chg coeffs, 0 upgd conss, 0 impls, 0 clqs
(round 2, fast)       1034 del vars, 517 del conss, 0 add conss, 30 chg bounds, 0 chg sides, 0 chg coeffs, 0 upgd conss, 0 impls, 0 clqs
(round 3, fast)       1034 del vars, 517 del conss, 0 add conss, 30 chg bounds, 517 chg sides, 0 chg coeffs, 0 upgd conss, 0 impls, 0 clqs
(round 4, exhaustive) 1034 del vars, 517 del conss, 0 add conss, 30 chg bounds, 517 chg sides, 0 chg coeffs, 30 upgd conss, 0 impls, 0 clqs
   (1.0s) symmetry computation started: requiring (bin +, int +, cont +), (fixed: bin -, int -, cont -)
   (1.1s) no symmetry present (symcode time: 0.03)
presolving (5 rounds: 5 fast, 2 medium, 2 exhaustive):
 1059 deleted vars, 517 deleted constraints, 0 added constraints, 30 tightened bounds, 0 added holes, 517 changed sides, 0 changed coefficients
 30 implications, 0 cliques
presolved problem has 51765 variables (5 bin, 0 int, 0 impl, 51760 cont) and 3607 constraints
     30 constraints of type <varbound>
   3547 constraints of type <linear>
     30 constraints of type <nonlinear>
Presolving Time: 1.03

 time | node  | left  |LP iter|LP it/n|mem/heur|mdpt |vars |cons |rows |cuts |sepa|confs|strbr|  dualbound   | primalbound  |  gap   | compl. 
t66.2s|     1 |     0 | 51072 |     - |  trysol|   0 |  51k|3582 |3762 |   0 |  0 |   0 |   0 | 1.097234e+01 | 3.226948e+03 |  Large | unknown
  100s|     1 |     0 | 78082 |     - |   309M |   0 |  51k|3582 |3762 |   0 |  0 |   0 |   0 | 1.492443e+01 | 3.226948e+03 |  Large | unknown
  102s|     1 |     0 | 79019 |     - |   320M |   0 |  51k|3582 |3767 |   5 |  1 |   0 |   0 | 1.525831e+01 | 3.226948e+03 |  Large | unknown
  102s|     1 |     0 | 79078 |     - |   320M |   0 |  51k|3582 |3771 |   9 |  2 |   0 |   0 | 1.537707e+01 | 3.226948e+03 |  Large | unknown
  102s|     1 |     0 | 79199 |     - |   321M |   0 |  51k|3582 |3775 |  13 |  3 |   0 |   0 | 1.546774e+01 | 3.226948e+03 |  Large | unknown
  103s|     1 |     0 | 79238 |     - |   321M |   0 |  51k|3582 |3776 |  17 |  4 |   0 |   0 | 1.571875e+01 | 3.226948e+03 |  Large | unknown
  103s|     1 |     0 | 79275 |     - |   321M |   0 |  51k|3582 |3778 |  19 |  5 |   0 |   0 | 1.571875e+01 | 3.226948e+03 |  Large | unknown
  103s|     1 |     0 | 79359 |     - |   322M |   0 |  51k|3582 |3780 |  21 |  6 |   0 |   0 | 1.571875e+01 | 3.226948e+03 |  Large | unknown
  103s|     1 |     0 | 79372 |     - |   323M |   0 |  51k|3582 |3782 |  23 |  7 |   0 |   0 | 1.571875e+01 | 3.226948e+03 |  Large | unknown
  104s|     1 |     0 | 79383 |     - |   323M |   0 |  51k|3582 |3784 |  25 |  8 |   0 |   0 | 1.571875e+01 | 3.226948e+03 |  Large | unknown
  104s|     1 |     0 | 79399 |     - |   324M |   0 |  51k|3582 |3786 |  27 |  9 |   0 |   0 | 1.571875e+01 | 3.226948e+03 |  Large | unknown
  105s|     1 |     0 | 79403 |     - |   324M |   0 |  51k|3582 |3788 |  29 | 10 |   0 |   0 | 1.571875e+01 | 3.226948e+03 |  Large | unknown
  105s|     1 |     0 | 79419 |     - |   324M |   0 |  51k|3582 |3789 |  30 | 11 |   0 |   0 | 1.571875e+01 | 3.226948e+03 |  Large | unknown
  105s|     1 |     0 | 79446 |     - |   325M |   0 |  51k|3582 |3791 |  32 | 12 |   0 |   0 | 1.571875e+01 | 3.226948e+03 |  Large | unknown
  106s|     1 |     0 | 79485 |     - |   325M |   0 |  51k|3582 |3793 |  34 | 13 |   0 |   0 | 1.571875e+01 | 3.226948e+03 |  Large | unknown
 time | node  | left  |LP iter|LP it/n|mem/heur|mdpt |vars |cons |rows |cuts |sepa|confs|strbr|  dualbound   | primalbound  |  gap   | compl. 
  106s|     1 |     0 | 79492 |     - |   326M |   0 |  51k|3582 |3794 |  35 | 14 |   0 |   0 | 1.571875e+01 | 3.226948e+03 |  Large | unknown
  388s|     1 |     0 |232229 |     - |   329M |   0 |  51k|3577 |3794 |  35 | 14 |   0 |   0 | 1.781865e+03 | 3.226948e+03 |  81.10%| unknown
  916s|     1 |     0 |311391 |     - |   331M |   0 |  51k|3577 |3825 |  66 | 15 |   0 |   0 | 1.781865e+03 | 3.226948e+03 |  81.10%| unknown
 1021s|     1 |     0 |371158 |     - |   331M |   0 |  51k|3577 |3855 |  96 | 16 |   0 |   0 | 1.781865e+03 | 3.226948e+03 |  81.10%| unknown
 1051s|     1 |     0 |388970 |     - |   331M |   0 |  51k|3577 |3878 | 119 | 17 |   0 |   0 | 1.781865e+03 | 3.226948e+03 |  81.10%| unknown
 1084s|     1 |     0 |411901 |     - |   331M |   0 |  51k|3577 |3898 | 139 | 18 |   0 |   0 | 1.781865e+03 | 3.226948e+03 |  81.10%| unknown
 1100s|     1 |     0 |425576 |     - |   331M |   0 |  51k|3577 |3784 | 159 | 19 |   0 |   0 | 1.782276e+03 | 3.226948e+03 |  81.06%| unknown
 1101s|     1 |     0 |427095 |     - |   331M |   0 |  51k|3577 |3799 | 174 | 20 |   0 |   0 | 1.784717e+03 | 3.226948e+03 |  80.81%| unknown
 1102s|     1 |     0 |427742 |     - |   331M |   0 |  51k|3577 |3814 | 189 | 21 |   0 |   0 | 1.786413e+03 | 3.226948e+03 |  80.64%| unknown
 1102s|     1 |     0 |428148 |     - |   331M |   0 |  51k|3577 |3825 | 200 | 22 |   0 |   0 | 1.788017e+03 | 3.226948e+03 |  80.48%| unknown
 1102s|     1 |     0 |428166 |     - |   331M |   0 |  51k|3577 |3831 | 206 | 23 |   0 |   0 | 1.788500e+03 | 3.226948e+03 |  80.43%| unknown
 1103s|     1 |     0 |428180 |     - |   331M |   0 |  51k|3577 |3834 | 209 | 24 |   0 |   0 | 1.788535e+03 | 3.226948e+03 |  80.42%| unknown
 1103s|     1 |     0 |428185 |     - |   331M |   0 |  51k|3577 |3738 | 210 | 25 |   0 |   0 | 1.788543e+03 | 3.226948e+03 |  80.42%| unknown
 1103s|     1 |     0 |428187 |     - |   331M |   0 |  51k|3577 |3739 | 211 | 26 |   0 |   0 | 1.788557e+03 | 3.226948e+03 |  80.42%| unknown
 1103s|     1 |     0 |428287 |     - |   331M |   0 |  51k|3577 |3740 | 212 | 27 |   0 |   0 | 1.788583e+03 | 3.226948e+03 |  80.42%| unknown
(run 1, node 1) restarting after 5 global fixings of integer variables

presolving:
(round 1, fast)       95 del vars, 0 del conss, 0 add conss, 0 chg bounds, 0 chg sides, 0 chg coeffs, 0 upgd conss, 30 impls, 0 clqs
presolving (2 rounds: 2 fast, 1 medium, 1 exhaustive):
 95 deleted vars, 0 deleted constraints, 0 added constraints, 0 tightened bounds, 0 added holes, 0 changed sides, 0 changed coefficients
 30 implications, 0 cliques
presolved problem has 51760 variables (0 bin, 0 int, 0 impl, 51760 cont) and 3577 constraints
   3547 constraints of type <linear>
     30 constraints of type <nonlinear>
Presolving Time: 1.35
transformed 1/1 original solutions to the transformed problem space

 time | node  | left  |LP iter|LP it/n|mem/heur|mdpt |vars |cons |rows |cuts |sepa|confs|strbr|  dualbound   | primalbound  |  gap   | compl. 
 1155s|     1 |     0 |461721 |     - |   348M |   0 |  51k|3577 |3757 |   0 |  0 |   0 |   0 | 1.788583e+03 | 3.226948e+03 |  80.42%| unknown
 1171s|     1 |     0 |474559 |     - |   348M |   0 |  51k|3577 |3786 |  29 |  1 |   0 |   0 | 1.788994e+03 | 3.226948e+03 |  80.38%| unknown
 1171s|     1 |     0 |475228 |     - |   348M |   0 |  51k|3577 |3811 |  54 |  2 |   0 |   0 | 1.794295e+03 | 3.226948e+03 |  79.84%| unknown
 1172s|     1 |     0 |475250 |     - |   348M |   0 |  51k|3577 |3831 |  74 |  3 |   0 |   0 | 1.794505e+03 | 3.226948e+03 |  79.82%| unknown
 1181s|     1 |     2 |487494 |     - |   351M |   0 |  51k|3577 |3831 |  74 |  4 |   0 |   0 | 1.794505e+03 | 3.226948e+03 |  79.82%| unknown
 1304s|   100 |   101 |596006 |2005.4 |   362M |  17 |  51k|3577 |3685 | 576 |  4 |   0 |   0 | 1.804805e+03 | 3.226948e+03 |  78.80%| unknown
 1460s|   200 |   199 |720432 |1624.8 |   367M |  24 |  51k|3577 |3733 |1846 |  4 |   0 |   0 | 1.807615e+03 | 3.226948e+03 |  78.52%| unknown
 1658s|   300 |   293 |883831 |1627.9 |   371M |  27 |  51k|3577 |3709 |3501 |  7 |   0 |   0 | 1.813316e+03 | 3.226948e+03 |  77.96%|   7.32%
 1797s|   400 |   393 |983923 |1471.1 |   372M |  32 |  51k|3577 |3760 |4443 |  6 |   0 |   0 | 1.820610e+03 | 3.226948e+03 |  77.25%|   7.48%
 1959s|   500 |   487 |  1116k|1442.8 |   373M |  37 |  51k|3577 |3749 |5622 |  4 |   0 |   0 | 1.838683e+03 | 3.226948e+03 |  75.50%|   7.88%
 2195s|   600 |   571 |  1326k|1551.9 |   375M |  37 |  51k|3577 |3781 |7713 |  9 |   0 |   0 | 1.842037e+03 | 3.226948e+03 |  75.18%|   7.97%
 2406s|   700 |   651 |  1515k|1599.6 |   376M |  37 |  51k|3577 |3746 |9560 |  3 |   0 |   0 | 1.849562e+03 | 3.226948e+03 |  74.47%|   8.14%
 2584s|   800 |   735 |  1681k|1608.0 |   379M |  37 |  51k|3577 |3714 |  10k|  3 |   0 |   0 | 1.849562e+03 | 3.226948e+03 |  74.47%|   8.16%
 2788s|   900 |   821 |  1865k|1633.7 |   381M |  37 |  51k|3577 |3780 |  12k|  8 |   0 |   0 | 1.860988e+03 | 3.226948e+03 |  73.40%|   8.41%
 2997s|  1000 |   911 |  2056k|1660.6 |   384M |  37 |  51k|3577 |3772 |  14k|  7 |   0 |   0 | 1.867504e+03 | 3.226948e+03 |  72.79%|   8.56%
 time | node  | left  |LP iter|LP it/n|mem/heur|mdpt |vars |cons |rows |cuts |sepa|confs|strbr|  dualbound   | primalbound  |  gap   | compl. 
 3113s|  1100 |  1009 |  2145k|1591.3 |   386M |  37 |  51k|3577 |3757 |  15k|  5 |   0 |   0 | 1.874548e+03 | 3.226948e+03 |  72.15%|   8.71%
 3218s|  1200 |  1103 |  2229k|1528.0 |   387M |  45 |  51k|3577 |3764 |  16k|  7 |   0 |   0 | 1.879124e+03 | 3.226948e+03 |  71.73%|   8.82%
 3286s|  1300 |  1201 |  2277k|1447.8 |   390M |  53 |  51k|3577 |3752 |  17k|  7 |   0 |   0 | 1.879608e+03 | 3.226948e+03 |  71.68%|   8.83%
 3429s|  1400 |  1289 |  2393k|1427.3 |   391M |  53 |  51k|3577 |3774 |  18k|  3 |   0 |   0 | 1.879608e+03 | 3.226948e+03 |  71.68%|   8.83%
d3595s|  1420 |  1277 |  2418k|1424.9 |adaptive|  53 |  51k|3577 |3742 |  18k|  0 |   0 |   0 | 1.879608e+03 | 3.191794e+03 |  69.81%|   8.91%

SCIP Status        : solving was interrupted [time limit reached]
Solving Time (sec) : 3600.96
Solving Nodes      : 1420 (total of 1421 nodes in 2 runs)
Primal Bound       : +3.19179392769891e+03 (2 solutions)
Dual Bound         : +1.87960761767124e+03
Gap                : 69.81 %
f0 = 0.8143084625886832
f0 = 0.3970084595502791
f0 = 0.3246646958100059
f0 = 0.6316845711955551
f0 = 0.4393560285689753
f0 = 0.5346380588610425
f0 = 0.19321078364780248
f0 = 0.48787928473623177
f0 = 0.4561186079722093
f0 = 0.3758346750409307
f0 = 0.5231689255851454
f0 = 0.31848900866144597
f0 = 0.4181822440596273
f0 = 0.4640587771632151
f0 = 0.475527910439112
f0 = 0.408477592826176
f0 = 0.6105107866862072
f0 = 0.3996551826139477
f0 = 0.22497146041182473
f0 = 0.39524397750783336
f0 = 0.31937124968266883
f0 = 0.46052981307832375
f0 = 0.5452249511157166
f0 = 0.5019951410757972
f0 = 0.43759154652652965
f0 = 0.6069818226013157
f0 = 0.35642537257402845
f0 = 0.3387805521495712
f0 = 0.23202938858160743
f0 = 0.336133829085903
primal_bound = 3191.7939276989055, dual_bound = 1879.6076176712368, gap = 41.11124777324447, time = 3603.57
